p cnf 436 1003
-1 0
-2 0
-3 0
-4 0
-5 0
-6 0
-7 0
-8 0
-9 0
-10 0
-11 0
-12 0
-13 0
-14 0
-15 0
-16 0
-17 0
-18 0
-19 0
-20 0
-21 0
-22 0
-23 0
-24 0
-25 0
-26 0
-27 0
-28 0
-29 0
-30 0
-31 0
-32 0
-33 0
-34 0
-35 0
-36 0
-37 0
-38 0
-39 0
-40 0
-41 0
-42 0
-43 0
-44 0
-45 0
-46 0
-47 0
-48 0
-49 0
-50 0
-51 0
-52 0
-101 53 0
-50 54 0
-7 55 0
-60 56 0
101 -53 0
50 -54 0
7 -55 0
60 -56 0
-53 55 0
-54 56 0
-55 53 0
-56 54 0
-105 57 0
-54 58 0
-11 59 0
-64 60 0
105 -57 0
54 -58 0
11 -59 0
64 -60 0
-57 59 0
-58 60 0
-59 57 0
-60 58 0
-109 61 0
-58 62 0
-15 63 0
-68 64 0
109 -61 0
58 -62 0
15 -63 0
68 -64 0
-61 63 0
-62 64 0
-63 61 0
-64 62 0
-113 65 0
-62 66 0
-19 67 0
-72 68 0
113 -65 0
62 -66 0
19 -67 0
72 -68 0
-65 67 0
-66 68 0
-67 65 0
-68 66 0
-117 69 0
-66 70 0
-23 71 0
-76 72 0
117 -69 0
66 -70 0
23 -71 0
76 -72 0
-69 71 0
-70 72 0
-71 69 0
-72 70 0
-121 73 0
-70 74 0
-27 75 0
-80 76 0
121 -73 0
70 -74 0
27 -75 0
80 -76 0
-73 75 0
-74 76 0
-75 73 0
-76 74 0
-125 77 0
-74 78 0
-31 79 0
-84 80 0
125 -77 0
74 -78 0
31 -79 0
84 -80 0
-77 79 0
-78 80 0
-79 77 0
-80 78 0
-129 81 0
-78 82 0
-35 83 0
-88 84 0
129 -81 0
78 -82 0
35 -83 0
88 -84 0
-81 83 0
-82 84 0
-83 81 0
-84 82 0
-133 85 0
-82 86 0
-39 87 0
-92 88 0
133 -85 0
82 -86 0
39 -87 0
92 -88 0
-85 87 0
-86 88 0
-87 85 0
-88 86 0
-137 89 0
-86 90 0
-43 91 0
-96 92 0
137 -89 0
86 -90 0
43 -91 0
96 -92 0
-89 91 0
-90 92 0
-91 89 0
-92 90 0
-93 0
-94 0
-95 0
-96 0
-97 0
-98 0
-99 0
-100 0
-149 101 0
-98 102 0
-55 103 0
-108 104 0
149 -101 0
98 -102 0
55 -103 0
108 -104 0
-101 103 0
-102 104 0
-103 101 0
-104 102 0
-433 -102 105 0
-433 -59 108 0
-433 -112 107 0
-433 -153 106 0
-433 102 -105 0
-433 59 -108 0
-433 112 -107 0
-433 153 -106 0
433 -102 107 0
433 -59 106 0
433 -112 105 0
433 -153 108 0
433 102 -107 0
433 59 -106 0
433 112 -105 0
433 153 -108 0
-157 109 0
-106 110 0
-63 111 0
-116 112 0
157 -109 0
106 -110 0
63 -111 0
116 -112 0
-109 111 0
-110 112 0
-111 109 0
-112 110 0
-161 113 0
-110 114 0
-67 115 0
-120 116 0
161 -113 0
110 -114 0
67 -115 0
120 -116 0
-113 115 0
-114 116 0
-115 113 0
-116 114 0
-434 -114 117 0
-434 -71 120 0
-434 -124 119 0
-434 -165 118 0
-434 114 -117 0
-434 71 -120 0
-434 124 -119 0
-434 165 -118 0
434 -114 119 0
434 -71 118 0
434 -124 117 0
434 -165 120 0
434 114 -119 0
434 71 -118 0
434 124 -117 0
434 165 -120 0
-169 121 0
-118 122 0
-75 123 0
-128 124 0
169 -121 0
118 -122 0
75 -123 0
128 -124 0
-121 123 0
-122 124 0
-123 121 0
-124 122 0
-173 125 0
-122 126 0
-79 127 0
-132 128 0
173 -125 0
122 -126 0
79 -127 0
132 -128 0
-125 127 0
-126 128 0
-127 125 0
-128 126 0
-177 129 0
-126 130 0
-83 131 0
-136 132 0
177 -129 0
126 -130 0
83 -131 0
136 -132 0
-129 131 0
-130 132 0
-131 129 0
-132 130 0
-181 133 0
-130 134 0
-87 135 0
-140 136 0
181 -133 0
130 -134 0
87 -135 0
140 -136 0
-133 135 0
-134 136 0
-135 133 0
-136 134 0
-185 137 0
-134 138 0
-91 139 0
-144 140 0
185 -137 0
134 -138 0
91 -139 0
144 -140 0
-137 139 0
-138 140 0
-139 137 0
-140 138 0
-141 0
-142 0
-143 0
-144 0
-145 0
-146 0
-147 0
-148 0
-197 149 0
-146 150 0
-103 151 0
-156 152 0
197 -149 0
146 -150 0
103 -151 0
156 -152 0
-149 151 0
-150 152 0
-151 149 0
-152 150 0
-201 153 0
-150 154 0
-107 155 0
-160 156 0
201 -153 0
150 -154 0
107 -155 0
160 -156 0
-153 155 0
-154 156 0
-155 153 0
-156 154 0
-205 157 0
-154 158 0
-111 159 0
-164 160 0
205 -157 0
154 -158 0
111 -159 0
164 -160 0
-157 159 0
-158 160 0
-159 157 0
-160 158 0
-209 161 0
-158 162 0
-115 163 0
-168 164 0
209 -161 0
158 -162 0
115 -163 0
168 -164 0
-161 163 0
-162 164 0
-163 161 0
-164 162 0
-213 165 0
-162 166 0
-119 167 0
-172 168 0
213 -165 0
162 -166 0
119 -167 0
172 -168 0
-165 167 0
-166 168 0
-167 165 0
-168 166 0
165 166 167 168 0
-217 169 0
-166 170 0
-123 171 0
-176 172 0
217 -169 0
166 -170 0
123 -171 0
176 -172 0
-169 171 0
-170 172 0
-171 169 0
-172 170 0
-221 173 0
-170 174 0
-127 175 0
-180 176 0
221 -173 0
170 -174 0
127 -175 0
180 -176 0
-173 175 0
-174 176 0
-175 173 0
-176 174 0
-225 177 0
-174 178 0
-131 179 0
-184 180 0
225 -177 0
174 -178 0
131 -179 0
184 -180 0
-177 179 0
-178 180 0
-179 177 0
-180 178 0
-229 181 0
-178 182 0
-135 183 0
-188 184 0
229 -181 0
178 -182 0
135 -183 0
188 -184 0
-181 183 0
-182 184 0
-183 181 0
-184 182 0
-233 185 0
-182 186 0
-139 187 0
-192 188 0
233 -185 0
182 -186 0
139 -187 0
192 -188 0
-185 187 0
-186 188 0
-187 185 0
-188 186 0
-189 0
-190 0
-191 0
-192 0
-193 0
-194 0
-195 0
-196 0
-245 197 0
-194 198 0
-151 199 0
-204 200 0
245 -197 0
194 -198 0
151 -199 0
204 -200 0
-197 199 0
-198 200 0
-199 197 0
-200 198 0
-249 201 0
-198 202 0
-155 203 0
-208 204 0
249 -201 0
198 -202 0
155 -203 0
208 -204 0
-201 203 0
-202 204 0
-203 201 0
-204 202 0
-253 205 0
-202 206 0
-159 207 0
-212 208 0
253 -205 0
202 -206 0
159 -207 0
212 -208 0
-205 207 0
-206 208 0
-207 205 0
-208 206 0
-257 209 0
-206 210 0
-163 211 0
-216 212 0
257 -209 0
206 -210 0
163 -211 0
216 -212 0
-209 211 0
-210 212 0
-211 209 0
-212 210 0
-261 213 0
-210 214 0
-167 215 0
-220 216 0
261 -213 0
210 -214 0
167 -215 0
220 -216 0
-213 215 0
-214 216 0
-215 213 0
-216 214 0
-265 217 0
-214 218 0
-171 219 0
-224 220 0
265 -217 0
214 -218 0
171 -219 0
224 -220 0
-217 219 0
-218 220 0
-219 217 0
-220 218 0
-269 221 0
-218 222 0
-175 223 0
-228 224 0
269 -221 0
218 -222 0
175 -223 0
228 -224 0
-221 223 0
-222 224 0
-223 221 0
-224 222 0
-273 225 0
-222 226 0
-179 227 0
-232 228 0
273 -225 0
222 -226 0
179 -227 0
232 -228 0
-225 227 0
-226 228 0
-227 225 0
-228 226 0
-277 229 0
-226 230 0
-183 231 0
-236 232 0
277 -229 0
226 -230 0
183 -231 0
236 -232 0
-229 231 0
-230 232 0
-231 229 0
-232 230 0
-281 233 0
-230 234 0
-187 235 0
-240 236 0
281 -233 0
230 -234 0
187 -235 0
240 -236 0
-233 235 0
-234 236 0
-235 233 0
-236 234 0
-237 0
-238 0
-239 0
-240 0
242 0
-293 245 0
-242 246 0
-199 247 0
-252 248 0
293 -245 0
242 -246 0
199 -247 0
252 -248 0
-245 247 0
-246 248 0
-247 245 0
-248 246 0
-435 -246 249 0
-435 -203 252 0
-435 -256 251 0
-435 -297 250 0
-435 246 -249 0
-435 203 -252 0
-435 256 -251 0
-435 297 -250 0
435 -246 251 0
435 -203 250 0
435 -256 249 0
435 -297 252 0
435 246 -251 0
435 203 -250 0
435 256 -249 0
435 297 -252 0
-301 253 0
-250 254 0
-207 255 0
-260 256 0
301 -253 0
250 -254 0
207 -255 0
260 -256 0
-253 255 0
-254 256 0
-255 253 0
-256 254 0
-305 257 0
-254 258 0
-211 259 0
-264 260 0
305 -257 0
254 -258 0
211 -259 0
264 -260 0
-257 259 0
-258 260 0
-259 257 0
-260 258 0
-436 -258 261 0
-436 -215 264 0
-436 -268 263 0
-436 -309 262 0
-436 258 -261 0
-436 215 -264 0
-436 268 -263 0
-436 309 -262 0
436 -258 263 0
436 -215 262 0
436 -268 261 0
436 -309 264 0
436 258 -263 0
436 215 -262 0
436 268 -261 0
436 309 -264 0
-313 265 0
-262 266 0
-219 267 0
-272 268 0
313 -265 0
262 -266 0
219 -267 0
272 -268 0
-265 267 0
-266 268 0
-267 265 0
-268 266 0
-317 269 0
-266 270 0
-223 271 0
-276 272 0
317 -269 0
266 -270 0
223 -271 0
276 -272 0
-269 271 0
-270 272 0
-271 269 0
-272 270 0
-321 273 0
-270 274 0
-227 275 0
-280 276 0
321 -273 0
270 -274 0
227 -275 0
280 -276 0
-273 275 0
-274 276 0
-275 273 0
-276 274 0
-325 277 0
-274 278 0
-231 279 0
-284 280 0
325 -277 0
274 -278 0
231 -279 0
284 -280 0
-277 279 0
-278 280 0
-279 277 0
-280 278 0
-329 281 0
-278 282 0
-235 283 0
-288 284 0
329 -281 0
278 -282 0
235 -283 0
288 -284 0
-281 283 0
-282 284 0
-283 281 0
-284 282 0
-285 0
-286 0
-287 0
-288 0
-289 0
-290 0
-291 0
-292 0
-341 293 0
-290 294 0
-247 295 0
-300 296 0
341 -293 0
290 -294 0
247 -295 0
300 -296 0
-293 295 0
-294 296 0
-295 293 0
-296 294 0
-345 297 0
-294 298 0
-251 299 0
-304 300 0
345 -297 0
294 -298 0
251 -299 0
304 -300 0
-297 299 0
-298 300 0
-299 297 0
-300 298 0
-349 301 0
-298 302 0
-255 303 0
-308 304 0
349 -301 0
298 -302 0
255 -303 0
308 -304 0
-301 303 0
-302 304 0
-303 301 0
-304 302 0
-353 305 0
-302 306 0
-259 307 0
-312 308 0
353 -305 0
302 -306 0
259 -307 0
312 -308 0
-305 307 0
-306 308 0
-307 305 0
-308 306 0
-357 309 0
-306 310 0
-263 311 0
-316 312 0
357 -309 0
306 -310 0
263 -311 0
316 -312 0
-309 311 0
-310 312 0
-311 309 0
-312 310 0
-361 313 0
-310 314 0
-267 315 0
-320 316 0
361 -313 0
310 -314 0
267 -315 0
320 -316 0
-313 315 0
-314 316 0
-315 313 0
-316 314 0
-365 317 0
-314 318 0
-271 319 0
-324 320 0
365 -317 0
314 -318 0
271 -319 0
324 -320 0
-317 319 0
-318 320 0
-319 317 0
-320 318 0
-369 321 0
-318 322 0
-275 323 0
-328 324 0
369 -321 0
318 -322 0
275 -323 0
328 -324 0
-321 323 0
-322 324 0
-323 321 0
-324 322 0
-373 325 0
-322 326 0
-279 327 0
-332 328 0
373 -325 0
322 -326 0
279 -327 0
332 -328 0
-325 327 0
-326 328 0
-327 325 0
-328 326 0
-377 329 0
-326 330 0
-283 331 0
-336 332 0
377 -329 0
326 -330 0
283 -331 0
336 -332 0
-329 331 0
-330 332 0
-331 329 0
-332 330 0
-333 0
-334 0
-335 0
-336 0
-337 0
-338 0
-339 0
-340 0
-389 341 0
-338 342 0
-295 343 0
-348 344 0
389 -341 0
338 -342 0
295 -343 0
348 -344 0
-341 343 0
-342 344 0
-343 341 0
-344 342 0
-393 345 0
-342 346 0
-299 347 0
-352 348 0
393 -345 0
342 -346 0
299 -347 0
352 -348 0
-345 347 0
-346 348 0
-347 345 0
-348 346 0
-397 349 0
-346 350 0
-303 351 0
-356 352 0
397 -349 0
346 -350 0
303 -351 0
356 -352 0
-349 351 0
-350 352 0
-351 349 0
-352 350 0
-401 353 0
-350 354 0
-307 355 0
-360 356 0
401 -353 0
350 -354 0
307 -355 0
360 -356 0
-353 355 0
-354 356 0
-355 353 0
-356 354 0
-405 357 0
-354 358 0
-311 359 0
-364 360 0
405 -357 0
354 -358 0
311 -359 0
364 -360 0
-357 359 0
-358 360 0
-359 357 0
-360 358 0
-409 361 0
-358 362 0
-315 363 0
-368 364 0
409 -361 0
358 -362 0
315 -363 0
368 -364 0
-361 363 0
-362 364 0
-363 361 0
-364 362 0
-413 365 0
-362 366 0
-319 367 0
-372 368 0
413 -365 0
362 -366 0
319 -367 0
372 -368 0
-365 367 0
-366 368 0
-367 365 0
-368 366 0
-417 369 0
-366 370 0
-323 371 0
-376 372 0
417 -369 0
366 -370 0
323 -371 0
376 -372 0
-369 371 0
-370 372 0
-371 369 0
-372 370 0
-421 373 0
-370 374 0
-327 375 0
-380 376 0
421 -373 0
370 -374 0
327 -375 0
380 -376 0
-373 375 0
-374 376 0
-375 373 0
-376 374 0
-425 377 0
-374 378 0
-331 379 0
-384 380 0
425 -377 0
374 -378 0
331 -379 0
384 -380 0
-377 379 0
-378 380 0
-379 377 0
-380 378 0
-381 0
-382 0
-383 0
-384 0
-385 0
-386 0
-387 0
-388 0
-389 0
-390 0
-391 0
-392 0
393 0
-397 0
-398 0
-399 0
-400 0
-401 0
-402 0
-403 0
-404 0
-405 0
-406 0
-407 0
-408 0
-409 0
-410 0
-411 0
-412 0
-413 0
-414 0
-415 0
-416 0
-417 0
-418 0
-419 0
-420 0
-421 0
-422 0
-423 0
-424 0
-425 0
-426 0
-427 0
-428 0
-429 0
-430 0
-431 0
-432 0
